27
0 1 2 3 4 5 2 3 3 0 3 5 6 7 8 9 6 7 10 5 2 11 9 9 12 7 11 12 6 11 6 9 7 13 14 8 15 15 16 11 17 8 12 15 0 13 18 14 19 13 20 21 10 8 22 22 16 20 5 19 4 2 23 9 22 0 3 11 19 20 4 24 19 24 17 4 20 14 6 23 25 22 23 15 21 17 13 26 26 10 13 1 1 26 24 1 16 10 6 1 
